30
0 11 31
1 5 13
2 25 94
3 29 39
4 45 11
5 31 30
6 25 32
7 27 37
8 30 72
9 2 100
10 17 8
11 58 96
12 49 69
13 14 92
14 49 74
15 36 70
16 15 82
17 1 68
18 37 83
19 6 25
20 30 80
21 42 44
22 36 6
23 24 92
24 26 97
25 48 1
26 25 21
27 42 82
28 15 80
29 7 82
